words_hard_train/7613.qaiger
aag 55 13 0 1 42
2
4
8
12
14
26
28
40
52
74
76
92
94
111
6 3 4
10 6 8
16 12 15
18 13 14
20 17 19
22 10 20
24 23 19
30 26 29
32 27 28
34 31 33
36 25 34
38 37 33
42 38 41
44 39 40
46 43 45
48 19 35
50 49 23
54 53 5
56 54 2
58 52 4
60 58 3
62 61 9
64 57 63
66 65 21
68 50 67
70 68 37
72 47 71
78 74 77
80 75 76
82 79 81
84 83 45
86 73 85
88 82 44
90 86 89
96 92 94
98 93 95
100 97 99
102 89 81
104 100 103
106 101 102
108 105 107
110 91 109
i0 2 y2[1]
i1 1 x1[1]
i2 1 x1[2]
i3 2 y2[3]
i4 1 x1[3]
i5 2 y2[4]
i6 1 x1[4]
i7 1 x1[5]
i8 1 x1[0]
i9 2 y2[6]
i10 1 x1[6]
i11 2 y2[7]
i12 1 x1[7]
o0 bv[0]
c
simplified
  <
    -44
    add
      and
        invert
          2 y2
        -38
      1 x1
