words_hard_train/7613.qaiger.qdimacs
p cnf 55 127
a 2 4 38 7 14 47 20 26 0
e 1 3 5 6 8 9 10 11 12 13 15 16 17 18 19 21 22 23 24 25 27 28 29 30 31 32 33 34 35 36 37 39 40 41 42 43 44 45 46 48 49 50 51 52 53 54 55 0
1 -2 3 0
-1 -3 0
2 -3 0
-3 -4 5 0
3 -5 0
4 -5 0
-6 7 8 0
6 -8 0
-7 -8 0
6 -7 9 0
-6 -9 0
7 -9 0
8 9 10 0
-8 -10 0
-9 -10 0
-5 -10 11 0
5 -11 0
10 -11 0
11 9 12 0
-11 -12 0
-9 -12 0
-13 14 15 0
13 -15 0
-14 -15 0
13 -14 16 0
-13 -16 0
14 -16 0
15 16 17 0
-15 -17 0
-16 -17 0
12 -17 18 0
-12 -18 0
17 -18 0
18 16 19 0
-18 -19 0
-16 -19 0
-19 20 21 0
19 -21 0
-20 -21 0
19 -20 22 0
-19 -22 0
20 -22 0
21 22 23 0
-21 -23 0
-22 -23 0
9 17 24 0
-9 -24 0
-17 -24 0
24 11 25 0
-24 -25 0
-11 -25 0
26 2 27 0
-26 -27 0
-2 -27 0
-27 -1 28 0
27 -28 0
1 -28 0
-26 -2 29 0
26 -29 0
2 -29 0
-29 1 30 0
29 -30 0
-1 -30 0
30 4 31 0
-30 -31 0
-4 -31 0
28 31 32 0
-28 -32 0
-31 -32 0
32 10 33 0
-32 -33 0
-10 -33 0
-25 33 34 0
25 -34 0
-33 -34 0
-34 18 35 0
34 -35 0
-18 -35 0
23 35 36 0
-23 -36 0
-35 -36 0
-37 38 39 0
37 -39 0
-38 -39 0
37 -38 40 0
-37 -40 0
38 -40 0
39 40 41 0
-39 -41 0
-40 -41 0
41 22 42 0
-41 -42 0
-22 -42 0
36 42 43 0
-36 -43 0
-42 -43 0
-41 -22 44 0
41 -44 0
22 -44 0
-43 44 45 0
43 -45 0
-44 -45 0
-46 -47 48 0
46 -48 0
47 -48 0
46 47 49 0
-46 -49 0
-47 -49 0
48 49 50 0
-48 -50 0
-49 -50 0
44 40 51 0
-44 -51 0
-40 -51 0
-50 51 52 0
50 -52 0
-51 -52 0
50 -51 53 0
-50 -53 0
51 -53 0
52 53 54 0
-52 -54 0
-53 -54 0
45 54 55 0
-45 -55 0
-54 -55 0
-55 0
